set Z;
 set Y;
 param A{r in Z, m in Y} default 0, binary;
param B{r in Z} default 1, integer;
 var Route{m in Y}, binary;
 minimize cost: sum{m in Y} Route[m];
 subject to covers{r in Z}: sum{m in Y} A[r,m]*Route[m]>=B[r];
 solve; 
 printf {m in Y:  Route[m] == 1} "%s ", m > "C:/Users/Guilherme/Documents/GitHub/SirisOnRails/Results.txt";
 data;
set Z:= Z0 Z1 Z2 Z3 Z4 Z5 Z6 Z7 Z8 Z9 Z10 Z11 Z12 Z13 Z14 Z15 Z16 Z17 Z18 Z19 Z20 Z21 Z22 Z23 Z24 Z25 Z26 Z27 Z28 Z29 Z30 Z31 Z32 Z33 Z34 Z35 Z36 Z37 Z38 Z39 Z40 Z41 Z42 Z43 Z44 Z45 Z46 Z47 Z48 Z49 Z50 Z51 Z52 Z53 Z54 Z55 Z56 Z57 Z58 Z59 Z60 Z61 Z62 Z63 Z64 Z65 Z66 Z67 Z68 Z69 Z70 Z71 Z72 Z73 Z74 Z75 Z76 Z77 Z78 Z79 Z80 Z81 Z82 Z83 Z84 Z85 Z86 Z87 Z88 Z89 Z90 Z91 Z92 Z93 Z94 Z95 Z96 Z97 Z98 Z99 Z100 Z101 Z102 Z103 Z104 Z105 Z106 Z107 Z108 Z109 Z110 Z111 Z112 Z113 Z114 Z115 Z116 Z117 Z118 Z119 Z120 Z121 Z122 Z123 Z124 Z125 Z126 Z127 Z128 Z129 Z130 Z131 Z132 Z133 Z134 Z135 Z136 Z137 Z138 Z139 Z140 Z141 Z142 Z143 Z144 Z145 Z146 Z147 Z148 Z149 Z150 Z151 Z152 Z153 Z154 Z155 Z156 Z157 Z158 Z159 Z160 Z161 Z162 Z163 Z164 Z165 Z166 Z167 Z168 Z169 Z170 Z171 Z172 Z173 Z174 Z175 Z176 Z177 Z178 Z179 Z180 Z181 Z182 Z183 Z184 Z185 Z186 Z187 Z188 Z189 Z190 Z191 Z192 Z193 Z194 Z195 Z196 Z197 Z198 Z199 Z200 Z201 Z202 Z203 Z204 Z205 Z206 Z207 Z208 Z209 Z210 Z211 Z212 Z213 Z214 Z215 Z216 Z217 Z218 Z219 Z220 Z221 Z222 Z223 Z224 Z225 Z226 Z227 Z228 Z229 Z230 Z231 Z232 Z233 Z234 Z235 Z236 Z237 Z238 Z239 Z240 Z241 Z242 Z243 Z244 Z245 Z246 Z247 Z248 Z249 Z250 Z251 Z252 Z253 Z254 Z255 Z256 Z257 Z258 Z259 Z260 Z261 Z262 Z263 Z264 Z265 Z266 Z267 Z268 Z269 Z270 Z271 Z272 Z273 Z274 Z275 Z276 Z277 Z278 Z279 Z280 Z281 Z282 Z283 Z284 Z285 Z286 Z287 Z288 Z289 Z290 Z291 Z292 Z293 Z294 Z295 Z296 Z297 Z298 Z299 Z300 Z301 Z302 Z303 Z304 Z305 Z306 Z307 Z308 Z309 Z310 Z311 Z312 Z313 Z314 Z315 Z316 Z317 Z318 Z319 Z320 Z321 Z322 Z323 Z324 Z325 Z326 Z327 Z328 Z329 Z330 Z331 Z332 Z333 Z334 Z335 Z336 Z337 Z338 Z339 Z340 Z341 Z342 Z343 Z344 Z345 Z346 Z347 Z348 Z349 Z350 Z351 Z352 Z353 Z354 Z355 Z356 Z357 Z358 Z359 Z360 Z361 Z362 Z363 Z364 Z365 Z366 Z367 Z368 Z369 Z370 Z371 Z372 Z373 Z374 Z375 Z376 Z377 Z378 Z379 Z380 Z381 Z382 Z383 Z384 Z385 Z386 Z387 Z388 Z389 Z390 Z391 Z392 Z393 Z394 Z395 Z396 Z397 Z398 Z399 Z400 Z401 Z402 Z403 Z404 Z405 Z406 Z407 Z408 Z409 Z410 Z411 Z412 Z413 Z414 Z415 Z416 Z417 Z418 Z419 Z420 Z421 Z422 Z423 Z424 Z425 Z426 Z427 Z428 Z429 Z430 Z431 Z432 Z433 Z434 Z435 Z436 Z437 Z438 Z439 Z440 Z441 Z442 Z443 Z444 Z445 Z446 Z447 Z448 Z449 Z450 Z451 Z452 Z453 Z454 Z455 Z456 Z457 Z458 Z459 Z460 Z461 Z462 Z463 Z464 Z465 Z466 Z467 Z468 Z469 Z470 Z471 Z472 Z473 Z474 Z475 Z476 Z477 Z478 Z479 Z480 Z481 Z482 Z483 Z484 Z485 Z486 Z487 Z488 Z489 Z490 Z491 Z492 Z493 Z494 Z495 Z496 Z497 Z498 Z499 Z500 Z501 Z502 Z503 Z504 Z505 Z506 Z507 Z508 Z509 Z510 Z511 Z512 Z513 Z514 Z515 Z516 Z517 Z518 Z519 Z520 Z521 Z522 Z523 Z524 Z525 Z526 Z527 Z528 Z529 Z530 Z531 Z532 Z533 Z534 Z535 Z536 Z537 Z538 Z539 Z540 Z541 Z542 Z543 Z544 Z545 Z546 Z547 Z548 Z549 Z550 Z551 Z552 Z553 Z554 Z555 Z556 Z557 Z558 Z559 Z560 Z561 Z562 Z563 Z564 Z565 Z566 Z567 Z568 Z569 Z570 Z571 Z572 Z573 Z574 Z575 Z576 Z577 Z578 Z579 Z580 Z581 Z582 Z583 Z584 Z585 Z586 Z587 Z588 Z589 Z590 Z591 Z592 Z593 Z594 Z595 Z596 Z597 Z598 Z599 Z600 Z601 Z602 Z603 Z604 Z605 Z606 Z607 Z608 Z609 Z610 Z611 Z612 Z613 Z614 Z615 Z616 Z617 Z618 Z619 Z620 Z621 Z622 Z623 Z624 Z625 Z626 Z627 Z628 Z629 Z630 Z631 Z632 Z633 Z634 Z635 Z636 Z637 Z638 Z639 Z640 Z641 Z642 Z643 Z644 Z645 Z646 Z647 Z648 Z649 Z650 Z651 Z652 Z653 Z654 Z655 Z656 Z657 Z658 Z659 Z660 Z661 Z662 Z663 Z664 Z665 Z666 Z667 Z668 Z669 Z670 Z671 Z672 Z673 Z674 Z675 Z676 Z677 Z678 Z679 Z680 Z681 Z682 Z683 Z684 Z685 Z686 Z687 Z688 Z689 Z690 Z691 Z692 Z693 Z694 Z695 Z696 Z697 Z698 Z699 Z700 Z701 Z702 Z703 Z704 Z705 Z706 Z707 Z708 Z709 Z710 Z711 Z712 Z713 Z714 Z715 Z716 Z717 Z718 Z719 Z720 Z721 Z722 Z723 Z724 Z725 Z726 Z727 Z728 Z729 Z730 Z731 Z732 Z733 Z734 Z735 Z736 Z737 Z738 Z739 Z740 Z741 Z742 Z743 Z744 Z745 Z746 Z747 Z748 Z749 Z750 Z751 Z752 Z753 Z754 Z755 Z756 Z757 Z758 Z759 Z760 Z761 Z762 Z763 Z764 Z765 Z766 Z767 Z768 Z769 Z770 Z771 Z772 Z773 Z774 Z775 Z776 Z777 Z778 Z779 Z780 Z781 Z782 Z783 Z784 Z785 Z786 Z787 Z788 Z789 Z790 Z791 Z792 Z793 Z794 Z795 Z796 Z797 Z798 Z799 Z800 Z801 Z802 Z803 Z804 Z805 Z806 Z807 Z808 Z809 Z810 Z811 Z812 Z813 Z814 Z815 Z816 Z817 Z818 Z819 Z820 Z821 Z822 Z823 Z824 Z825 Z826 Z827 Z828 Z829 Z830 Z831 Z832 Z833 Z834 Z835 Z836 Z837 Z838 Z839 Z840 Z841 Z842 Z843 Z844 Z845 Z846 Z847 Z848 Z849 Z850 Z851 Z852 Z853 Z854 Z855 Z856 Z857 Z858 Z859 Z860 Z861 Z862 Z863 Z864 Z865 Z866 Z867 Z868 Z869 Z870 Z871 Z872 Z873 Z874 Z875 Z876 Z877 Z878 Z879 Z880 Z881 Z882 Z883 Z884 Z885 Z886 Z887 Z888 Z889 Z890 Z891 Z892 Z893 Z894 Z895 Z896 Z897 Z898 Z899 Z900 Z901 Z902 Z903 Z904 Z905 Z906 Z907 Z908 Z909 Z910 Z911 Z912 Z913 Z914 Z915 Z916 Z917 Z918 Z919 Z920 Z921 Z922 Z923 Z924 Z925 Z926 Z927 Z928 Z929 Z930 Z931 Z932 Z933 Z934 Z935 Z936 Z937 Z938 Z939 Z940 Z941 Z942 Z943 Z944 Z945 Z946 Z947 Z948 Z949 Z950 Z951 Z952 Z953 Z954 Z955 Z956 Z957 Z958 Z959 Z960 Z961 Z962 Z963 Z964 Z965 Z966 Z967 Z968 Z969 Z970 Z971 Z972 Z973 Z974 Z975 Z976 Z977 Z978 Z979 Z980 Z981 Z982 Z983 Z984 Z985 Z986 Z987 Z988 Z989 Z990 Z991 Z992 Z993 Z994 Z995 Z996 Z997 Z998 Z999 Z1000 Z1001 Z1002 Z1003 Z1004 Z1005 Z1006 Z1007 Z1008 Z1009 Z1010 Z1011 Z1012 Z1013 Z1014 Z1015 Z1016 Z1017 Z1018 Z1019 Z1020 Z1021 Z1022 Z1023 Z1024 Z1025 Z1026 Z1027 Z1028 Z1029 Z1030 Z1031 Z1032 Z1033 Z1034 Z1035 Z1036 Z1037 Z1038 Z1039 Z1040 Z1041 Z1042 Z1043 Z1044 Z1045 Z1046 Z1047 Z1048 Z1049 Z1050 Z1051 Z1052 Z1053 Z1054 Z1055 Z1056 Z1057 Z1058 Z1059 Z1060 Z1061 Z1062 Z1063 Z1064 Z1065 Z1066 Z1067 Z1068 Z1069 Z1070 Z1071 Z1072 Z1073 Z1074 Z1075 Z1076 Z1077 Z1078 Z1079 Z1080 Z1081 Z1082 Z1083 Z1084 Z1085 Z1086 Z1087 Z1088 Z1089 Z1090 Z1091 Z1092 Z1093 Z1094 Z1095 Z1096 Z1097 Z1098 Z1099 Z1100 Z1101 Z1102 Z1103 Z1104 Z1105 Z1106 Z1107 Z1108 Z1109 Z1110 Z1111 Z1112 Z1113 Z1114 Z1115 Z1116 Z1117 Z1118 Z1119 Z1120 Z1121 Z1122 Z1123 Z1124 Z1125 Z1126 Z1127 Z1128 Z1129 Z1130 Z1131 Z1132 Z1133 Z1134 Z1135 Z1136 Z1137 Z1138 Z1139 Z1140 Z1141 Z1142 Z1143 Z1144 Z1145 Z1146 Z1147 Z1148 Z1149 Z1150 Z1151 Z1152 Z1153 Z1154 Z1155 Z1156 Z1157 Z1158 Z1159 Z1160 Z1161 Z1162 Z1163 Z1164 Z1165 Z1166 Z1167 Z1168 Z1169 Z1170 Z1171 Z1172 Z1173 Z1174 Z1175 Z1176 Z1177 Z1178 Z1179 Z1180 Z1181 Z1182 Z1183 Z1184 Z1185 Z1186 Z1187 Z1188 Z1189 Z1190 Z1191 Z1192 Z1193 Z1194 Z1195 Z1196 Z1197 Z1198 Z1199 Z1200 Z1201 Z1202 Z1203 Z1204 Z1205 Z1206 Z1207 Z1208 Z1209 Z1210 Z1211 Z1212 Z1213 Z1214 Z1215 Z1216 Z1217 Z1218 Z1219 Z1220 Z1221 Z1222 Z1223 Z1224 Z1225 Z1226 Z1227 Z1228 Z1229 Z1230 Z1231 Z1232 Z1233 Z1234 Z1235 Z1236 Z1237 Z1238 Z1239 Z1240 Z1241 Z1242 Z1243 Z1244 Z1245 Z1246 Z1247 Z1248 Z1249 Z1250 Z1251 Z1252 Z1253 Z1254 Z1255 Z1256 Z1257 Z1258 Z1259 Z1260 Z1261 Z1262 Z1263 Z1264 Z1265 Z1266 Z1267 Z1268 Z1269 Z1270 Z1271 Z1272 Z1273 Z1274 Z1275 Z1276 Z1277 Z1278 Z1279 Z1280 Z1281 Z1282 Z1283 Z1284 Z1285 Z1286 Z1287 Z1288 Z1289 Z1290 Z1291 Z1292 Z1293 Z1294 Z1295 Z1296 Z1297 Z1298 Z1299 Z1300 Z1301 Z1302 Z1303 Z1304 Z1305 Z1306 Z1307 Z1308 Z1309 Z1310 Z1311 Z1312 Z1313 Z1314 Z1315 Z1316 Z1317 Z1318 Z1319 Z1320 Z1321 Z1322 Z1323 Z1324 Z1325 Z1326 Z1327 Z1328 Z1329 Z1330 Z1331 Z1332 Z1333 Z1334 Z1335 Z1336 Z1337 Z1338 Z1339 Z1340 Z1341 Z1342 Z1343 Z1344 Z1345 Z1346 Z1347 Z1348 Z1349 Z1350 Z1351 Z1352 Z1353 Z1354 Z1355 Z1356 Z1357 Z1358 Z1359 Z1360 Z1361 Z1362 Z1363 Z1364 Z1365 Z1366 Z1367 Z1368 Z1369 Z1370 Z1371 Z1372 Z1373 Z1374 Z1375 Z1376 Z1377 Z1378 Z1379 Z1380 Z1381 Z1382 Z1383 Z1384 Z1385 Z1386 Z1387 Z1388 Z1389 Z1390 Z1391 Z1392 Z1393 Z1394 Z1395 Z1396 Z1397 Z1398 Z1399 Z1400 Z1401 Z1402 Z1403 Z1404 Z1405 Z1406 Z1407 Z1408 Z1409 Z1410 Z1411 Z1412 Z1413 Z1414 Z1415 Z1416 Z1417 Z1418 Z1419 Z1420 Z1421 Z1422 Z1423 Z1424 Z1425 Z1426 Z1427 Z1428 Z1429 Z1430 Z1431 Z1432 Z1433 Z1434 Z1435 Z1436 Z1437 Z1438 Z1439 Z1440 Z1441 Z1442 Z1443 Z1444 Z1445 Z1446 Z1447 Z1448 Z1449 Z1450 Z1451 Z1452 Z1453 Z1454 Z1455 Z1456 Z1457 Z1458 Z1459 Z1460 Z1461 Z1462 Z1463 Z1464 Z1465 Z1466 Z1467 Z1468 Z1469 Z1470 Z1471 Z1472 Z1473 Z1474 Z1475 Z1476 Z1477 Z1478 Z1479 Z1480 Z1481 Z1482 Z1483 Z1484 Z1485 Z1486 Z1487 Z1488 Z1489 Z1490 Z1491 Z1492 Z1493 Z1494 Z1495 Z1496 Z1497 Z1498 Z1499 Z1500 Z1501 Z1502 Z1503 Z1504 Z1505 Z1506 Z1507 Z1508 Z1509 Z1510 Z1511 Z1512 Z1513 Z1514 Z1515 Z1516 Z1517 Z1518 Z1519 Z1520 Z1521 Z1522 Z1523 Z1524 Z1525 Z1526 Z1527 Z1528 Z1529 Z1530 Z1531 Z1532 Z1533 Z1534 Z1535 Z1536 Z1537 Z1538 Z1539 Z1540 Z1541 Z1542 Z1543 Z1544 Z1545 Z1546 Z1547 Z1548 Z1549 Z1550 Z1551 Z1552 Z1553 Z1554 Z1555 Z1556 Z1557 Z1558 Z1559 Z1560 Z1561 Z1562 Z1563 Z1564 Z1565 Z1566 Z1567 Z1568 Z1569 Z1570 Z1571 Z1572 Z1573 Z1574 Z1575 Z1576 Z1577 Z1578 Z1579 Z1580 Z1581 Z1582 Z1583 Z1584 Z1585 Z1586 Z1587 Z1588 Z1589 Z1590 Z1591 Z1592 Z1593 Z1594 Z1595 Z1596 Z1597 Z1598 Z1599 Z1600 Z1601 Z1602 Z1603 Z1604 Z1605 Z1606 Z1607 Z1608 Z1609 Z1610 Z1611 Z1612 Z1613 Z1614 Z1615 Z1616 Z1617 Z1618 Z1619 Z1620 Z1621 Z1622 Z1623 Z1624 Z1625 Z1626 Z1627 Z1628 Z1629 Z1630 Z1631 Z1632 Z1633 Z1634 Z1635 Z1636 Z1637 Z1638 Z1639 Z1640 Z1641 Z1642 Z1643 Z1644 Z1645 Z1646 Z1647 Z1648 Z1649 Z1650 Z1651 Z1652 Z1653 Z1654 Z1655 Z1656 Z1657 Z1658 Z1659 Z1660 Z1661 Z1662 Z1663 Z1664 Z1665 Z1666 Z1667 Z1668 Z1669 Z1670 Z1671 Z1672 Z1673 Z1674 Z1675 Z1676 Z1677 Z1678 Z1679 Z1680 Z1681 Z1682 Z1683 Z1684 Z1685 Z1686 Z1687 Z1688 Z1689 Z1690 Z1691 Z1692 Z1693 Z1694 Z1695 Z1696 Z1697 Z1698 Z1699 Z1700 Z1701 Z1702 Z1703 Z1704 Z1705 Z1706 Z1707 Z1708 Z1709 Z1710 Z1711 Z1712 Z1713 Z1714 Z1715 Z1716 Z1717 Z1718 Z1719 Z1720 Z1721 Z1722 Z1723 Z1724 Z1725 Z1726 Z1727 Z1728 Z1729 Z1730 Z1731 Z1732 Z1733 Z1734 Z1735 Z1736 Z1737 Z1738 Z1739 Z1740 Z1741 Z1742 Z1743 Z1744 Z1745 Z1746 Z1747 Z1748 Z1749 Z1750 Z1751 Z1752 Z1753 Z1754 Z1755 Z1756 Z1757 Z1758 Z1759 Z1760 Z1761 Z1762 Z1763 Z1764 Z1765 Z1766 Z1767 Z1768 Z1769 Z1770 Z1771 Z1772 Z1773 Z1774 Z1775 Z1776 Z1777 Z1778 Z1779 Z1780 Z1781 Z1782 Z1783 Z1784 Z1785 Z1786 Z1787 Z1788 Z1789 Z1790 Z1791 Z1792 Z1793 Z1794 Z1795 Z1796 Z1797 Z1798 Z1799 Z1800 Z1801 Z1802 Z1803 Z1804 Z1805 Z1806 Z1807 Z1808 Z1809 Z1810 Z1811 Z1812 Z1813 Z1814 Z1815 Z1816 Z1817 Z1818 Z1819 Z1820 Z1821 Z1822 Z1823 Z1824 Z1825 Z1826 Z1827 Z1828 Z1829 Z1830 Z1831 Z1832 Z1833 Z1834 Z1835 Z1836 Z1837 Z1838 Z1839 Z1840 Z1841 Z1842 Z1843 Z1844 Z1845 Z1846 Z1847 Z1848 Z1849 Z1850 Z1851 Z1852 Z1853 Z1854 Z1855 Z1856 Z1857 Z1858 Z1859 Z1860 Z1861 Z1862 Z1863 Z1864 Z1865 Z1866 Z1867 Z1868 Z1869 Z1870 Z1871 Z1872 Z1873 Z1874 Z1875 Z1876 Z1877 Z1878 Z1879 Z1880 Z1881 Z1882 Z1883 Z1884 Z1885 Z1886 Z1887 Z1888 Z1889 Z1890 Z1891 Z1892 Z1893 Z1894 Z1895 Z1896 Z1897 Z1898 Z1899 Z1900 Z1901 Z1902 Z1903 Z1904 Z1905 Z1906 Z1907 Z1908 Z1909 Z1910 Z1911 Z1912 Z1913 Z1914 Z1915 Z1916 Z1917 Z1918 Z1919 Z1920 Z1921 Z1922 Z1923 Z1924 Z1925 Z1926 Z1927 Z1928 Z1929 Z1930 Z1931 Z1932 Z1933 Z1934 Z1935 Z1936 Z1937 Z1938 Z1939 Z1940 Z1941 Z1942 Z1943 Z1944 Z1945 Z1946 Z1947 Z1948 Z1949 Z1950 Z1951 Z1952 Z1953 Z1954 Z1955 Z1956 Z1957 Z1958 Z1959 Z1960 Z1961 Z1962 Z1963 Z1964 Z1965 Z1966 Z1967 Z1968 Z1969 Z1970 Z1971 Z1972 Z1973 Z1974 Z1975 Z1976 Z1977 Z1978 Z1979 Z1980 Z1981 Z1982 Z1983 Z1984 Z1985 Z1986 Z1987 Z1988 Z1989 Z1990 Z1991 Z1992 Z1993 Z1994 Z1995 Z1996 Z1997 Z1998 Z1999 Z2000 Z2001 Z2002 Z2003 Z2004 Z2005 Z2006 Z2007 Z2008 Z2009 Z2010 Z2011 Z2012 Z2013 Z2014 Z2015 Z2016 Z2017 Z2018 Z2019 Z2020 Z2021 Z2022 Z2023 Z2024 Z2025 Z2026 Z2027 Z2028 Z2029 Z2030 Z2031 Z2032 Z2033 Z2034 Z2035 Z2036 Z2037 Z2038 Z2039 Z2040 Z2041 Z2042 Z2043 Z2044 Z2045 Z2046 Z2047 Z2048 Z2049 Z2050 Z2051 Z2052 Z2053 Z2054 Z2055 Z2056 Z2057 Z2058 Z2059 Z2060 Z2061 Z2062 Z2063 Z2064 Z2065 Z2066 Z2067 Z2068 Z2069 Z2070 Z2071 Z2072 Z2073 Z2074 Z2075 Z2076 Z2077 Z2078 Z2079 Z2080 Z2081 Z2082 Z2083 Z2084 Z2085 Z2086 Z2087 Z2088 Z2089 Z2090 Z2091 Z2092 Z2093 Z2094 Z2095 Z2096 Z2097 Z2098 Z2099 Z2100 Z2101 Z2102 Z2103 Z2104 Z2105 Z2106 Z2107 Z2108 Z2109 Z2110 Z2111 Z2112 Z2113 Z2114 Z2115 Z2116 Z2117 Z2118 Z2119 Z2120 Z2121 Z2122 Z2123 Z2124 Z2125 Z2126 Z2127 Z2128 Z2129 Z2130 Z2131 Z2132 Z2133 Z2134 Z2135 Z2136 Z2137 Z2138 Z2139 Z2140 Z2141 Z2142 Z2143 Z2144 Z2145 Z2146 Z2147 Z2148 Z2149 Z2150 Z2151 Z2152 Z2153 Z2154 Z2155 Z2156 Z2157 Z2158 Z2159 Z2160 Z2161 Z2162 Z2163 Z2164 Z2165 Z2166 Z2167 Z2168 Z2169 Z2170 Z2171 Z2172 Z2173 Z2174 Z2175 Z2176 Z2177 Z2178 Z2179 Z2180 Z2181 Z2182 Z2183 Z2184 Z2185 Z2186 Z2187 Z2188 Z2189 Z2190 Z2191 Z2192 Z2193 Z2194 Z2195 Z2196 Z2197 Z2198 Z2199 Z2200 Z2201 Z2202 Z2203 Z2204 Z2205 Z2206 Z2207 Z2208 Z2209 Z2210 Z2211 Z2212 Z2213 Z2214 Z2215 Z2216 Z2217 Z2218 Z2219 Z2220 Z2221 Z2222 Z2223 Z2224 Z2225 Z2226 Z2227 Z2228 Z2229 Z2230 Z2231 Z2232 Z2233 Z2234 Z2235 Z2236 Z2237 Z2238 Z2239 Z2240 Z2241 Z2242 Z2243 Z2244 Z2245 Z2246 Z2247 Z2248 Z2249 Z2250 Z2251 Z2252 Z2253 Z2254 Z2255 Z2256 Z2257 Z2258 Z2259 Z2260 Z2261 Z2262 Z2263 Z2264 Z2265 Z2266 Z2267 Z2268 Z2269 Z2270 Z2271 Z2272 Z2273 Z2274 Z2275 Z2276 Z2277 Z2278 Z2279 Z2280 Z2281 Z2282 Z2283 Z2284 Z2285 Z2286 Z2287 Z2288 Z2289 Z2290 Z2291 Z2292 Z2293 Z2294 Z2295 Z2296 Z2297 Z2298 Z2299 Z2300 Z2301 Z2302 Z2303 Z2304 Z2305 Z2306 Z2307 Z2308 Z2309 Z2310 Z2311 Z2312 Z2313 Z2314 Z2315 Z2316 Z2317 Z2318 Z2319 Z2320 Z2321 Z2322 Z2323 Z2324 Z2325 Z2326 Z2327 Z2328 Z2329 Z2330 Z2331 Z2332 Z2333 Z2334 Z2335 Z2336 Z2337 Z2338 Z2339 Z2340 Z2341 Z2342 Z2343 Z2344 Z2345 Z2346 Z2347 Z2348 Z2349 Z2350 Z2351 Z2352 Z2353 Z2354 Z2355 Z2356 Z2357 Z2358 Z2359 Z2360 Z2361 Z2362 Z2363 Z2364 Z2365 Z2366 Z2367 Z2368 Z2369 Z2370 Z2371 Z2372 Z2373 Z2374 Z2375 Z2376 Z2377 Z2378 Z2379 Z2380 Z2381 Z2382 Z2383 Z2384 Z2385 Z2386 Z2387 Z2388 Z2389 Z2390 Z2391 Z2392 Z2393 Z2394 Z2395 Z2396 Z2397 Z2398 Z2399 Z2400 Z2401 Z2402 Z2403 Z2404 Z2405 Z2406 Z2407 Z2408 Z2409 Z2410 Z2411 Z2412 Z2413 Z2414 Z2415 Z2416 Z2417 Z2418 Z2419 Z2420 Z2421 Z2422 Z2423 Z2424 Z2425 Z2426 Z2427 Z2428 Z2429 Z2430 Z2431 Z2432 Z2433 Z2434 Z2435 Z2436 Z2437 Z2438 Z2439 Z2440 Z2441 Z2442 Z2443 Z2444 Z2445 Z2446 Z2447 Z2448 Z2449 Z2450 Z2451 Z2452 Z2453 Z2454 Z2455 Z2456 Z2457 Z2458 Z2459 Z2460 Z2461 Z2462 Z2463 Z2464 Z2465 Z2466 Z2467 Z2468 Z2469 Z2470 Z2471 Z2472 Z2473 Z2474 Z2475 Z2476 Z2477 Z2478 Z2479 Z2480 Z2481 Z2482 Z2483 Z2484 Z2485 Z2486 Z2487 Z2488 Z2489 Z2490 Z2491 Z2492 Z2493 Z2494 Z2495 Z2496 Z2497 Z2498 Z2499 Z2500 Z2501 Z2502 Z2503 Z2504 Z2505 Z2506 Z2507 Z2508 Z2509 Z2510 Z2511 Z2512 Z2513 Z2514 Z2515 Z2516 Z2517 Z2518 Z2519 Z2520 Z2521 Z2522 Z2523 Z2524 Z2525 Z2526 Z2527 Z2528 Z2529 Z2530 Z2531 Z2532 Z2533 Z2534 Z2535 Z2536 Z2537 Z2538 Z2539 Z2540 Z2541 Z2542 Z2543 Z2544 Z2545 Z2546 Z2547 Z2548 Z2549 Z2550 Z2551 Z2552 Z2553 Z2554 Z2555 Z2556 Z2557 Z2558 Z2559 Z2560 Z2561 Z2562 Z2563 Z2564 Z2565 Z2566 Z2567 Z2568 Z2569 Z2570 Z2571 Z2572 Z2573 Z2574 Z2575 Z2576 Z2577 Z2578 Z2579 Z2580 Z2581 Z2582 Z2583 Z2584 Z2585 Z2586 Z2587 Z2588 Z2589 Z2590 Z2591 Z2592 Z2593 Z2594 Z2595 Z2596 Z2597 Z2598 Z2599 Z2600 Z2601 Z2602 Z2603 Z2604 Z2605 Z2606 Z2607 Z2608 Z2609 Z2610 Z2611 Z2612 Z2613 Z2614 Z2615 Z2616 Z2617 Z2618 Z2619 Z2620 Z2621 Z2622 Z2623 Z2624 Z2625 Z2626 Z2627 Z2628 Z2629 Z2630 Z2631 Z2632 Z2633 Z2634 Z2635 Z2636 Z2637 Z2638 Z2639 Z2640 Z2641 Z2642 Z2643 Z2644 Z2645 Z2646 Z2647 Z2648 Z2649 Z2650 Z2651 Z2652 Z2653 Z2654 Z2655 Z2656 Z2657 Z2658 Z2659 Z2660 Z2661 Z2662 Z2663 Z2664 Z2665 Z2666 Z2667 Z2668 Z2669 Z2670 Z2671 Z2672 Z2673 Z2674 Z2675 Z2676 Z2677 Z2678 Z2679 Z2680 Z2681 Z2682 Z2683 Z2684 Z2685 Z2686 Z2687 Z2688 Z2689 Z2690 Z2691 Z2692 Z2693 Z2694 Z2695 Z2696 Z2697 Z2698 Z2699 Z2700 Z2701 Z2702 Z2703 Z2704 Z2705 Z2706 Z2707 Z2708 Z2709 Z2710 Z2711 Z2712 Z2713 Z2714 Z2715 Z2716 Z2717 Z2718 Z2719 Z2720 Z2721 Z2722 Z2723 Z2724 Z2725 Z2726 Z2727 Z2728 Z2729 Z2730 Z2731 Z2732 Z2733 Z2734 Z2735 Z2736 Z2737 Z2738 Z2739 Z2740 Z2741 Z2742 Z2743 Z2744 Z2745 Z2746 Z2747 Z2748 Z2749 Z2750 Z2751 Z2752 Z2753 Z2754 Z2755 Z2756 Z2757 Z2758 Z2759 Z2760 Z2761 Z2762 Z2763 Z2764 Z2765 Z2766 Z2767 Z2768 Z2769 Z2770 Z2771 Z2772 Z2773 Z2774 Z2775 Z2776 Z2777 Z2778 Z2779 Z2780 Z2781 Z2782 Z2783 Z2784 Z2785 Z2786 Z2787 Z2788 Z2789 Z2790 Z2791 Z2792 Z2793 Z2794 Z2795 Z2796 Z2797 Z2798 Z2799 Z2800 Z2801 Z2802 Z2803 Z2804 Z2805 Z2806 Z2807 Z2808 Z2809 Z2810 Z2811 Z2812 Z2813 Z2814 Z2815 Z2816 Z2817 Z2818 Z2819 Z2820 Z2821 Z2822 Z2823 Z2824 Z2825 Z2826 Z2827 Z2828 Z2829 Z2830 Z2831 Z2832 Z2833 Z2834 Z2835 Z2836 Z2837 Z2838 Z2839 Z2840 Z2841 Z2842 Z2843 Z2844 Z2845 Z2846 Z2847 Z2848 Z2849 Z2850 Z2851 Z2852 Z2853 Z2854 Z2855 Z2856 Z2857 Z2858 Z2859 Z2860 Z2861 Z2862 Z2863 Z2864 Z2865 Z2866 Z2867 Z2868 Z2869 Z2870 Z2871 Z2872 Z2873 Z2874 Z2875 Z2876 Z2877 Z2878 Z2879 Z2880 Z2881 Z2882 Z2883 Z2884 Z2885 Z2886 Z2887 Z2888 Z2889 Z2890 Z2891 Z2892 Z2893 Z2894 Z2895 Z2896 Z2897 Z2898 Z2899 Z2900 Z2901 Z2902 Z2903 Z2904 Z2905 Z2906 Z2907 Z2908 Z2909 Z2910 Z2911 Z2912 Z2913 Z2914 Z2915 Z2916 Z2917 Z2918 Z2919 Z2920 Z2921 Z2922 Z2923 Z2924 Z2925 Z2926 Z2927 Z2928 Z2929 Z2930 Z2931 Z2932 Z2933 Z2934 Z2935 Z2936 Z2937 Z2938 Z2939 Z2940 Z2941 Z2942 Z2943 Z2944 Z2945 Z2946 Z2947 Z2948 Z2949 Z2950 Z2951 Z2952 Z2953 Z2954 Z2955 Z2956 Z2957 Z2958 Z2959 Z2960 Z2961 Z2962 Z2963 Z2964 Z2965 Z2966 Z2967 Z2968 Z2969 Z2970 Z2971 Z2972 Z2973 Z2974 Z2975 Z2976 Z2977 Z2978 Z2979 Z2980 Z2981 Z2982 Z2983 Z2984 Z2985 Z2986 Z2987 Z2988 Z2989 Z2990 Z2991 Z2992 Z2993 Z2994 Z2995 Z2996 Z2997 Z2998 Z2999 ;
set Y:= Y0 Y1 Y2 Y3 Y4 Y5 Y6 Y7 Y8 Y9 Y10 Y11 Y12 Y13 Y14 Y15 Y16 Y17 Y18 Y19 Y20 Y21 Y22 Y23 Y24 Y25 Y26 Y27 Y28 Y29 Y30 Y31 Y32 Y33 Y34 Y35 Y36 Y37 Y38 Y39 Y40 Y41 Y42 Y43 Y44 Y45 Y46 Y47 Y48 Y49 Y50 Y51 Y52 Y53 Y54 Y55 Y56 Y57 Y58 Y59 Y60 Y61 Y62 Y63 Y64 Y65 Y66 Y67 Y68 Y69 Y70 Y71 Y72 Y73 Y74 Y75 Y76 Y77 Y78 Y79 Y80 Y81 Y82 Y83 Y84 Y85 Y86 Y87 Y88 Y89 Y90 Y91 Y92 Y93 Y94 Y95 Y96 Y97 Y98 Y99 Y100 Y101 Y102 Y103 Y104 Y105 Y106 Y107 Y108 Y109 Y110 Y111 Y112 Y113 Y114 Y115 Y116 Y117 Y118 Y119 Y120 Y121 Y122 Y123 Y124 Y125 Y126 Y127 Y128 Y129 Y130 Y131 Y132 Y133 Y134 Y135 Y136 Y137 Y138 Y139 Y140 Y141 Y142 Y143 Y144 Y145 Y146 Y147 Y148 Y149 Y150 Y151 Y152 Y153 Y154 Y155 Y156 Y157 Y158 Y159 Y160 Y161 Y162 Y163 Y164 Y165 Y166 Y167 Y168 Y169 Y170 Y171 Y172 Y173 Y174 Y175 Y176 Y177 Y178 Y179 Y180 Y181 Y182 Y183 Y184 Y185 Y186 Y187 Y188 Y189 Y190 Y191 Y192 Y193 Y194 Y195 Y196 Y197 Y198 Y199 Y200 Y201 Y202 Y203 Y204 Y205 Y206 Y207 Y208 Y209 Y210 Y211 Y212 Y213 Y214 Y215 Y216 Y217 Y218 Y219 Y220 Y221 Y222 Y223 Y224 Y225 Y226 Y227 Y228 Y229 Y230 Y231 Y232 Y233 Y234 Y235 Y236 Y237 Y238 Y239 Y240 Y241 Y242 Y243 Y244 Y245 Y246 Y247 Y248 Y249 Y250 Y251 Y252 Y253 Y254 Y255 Y256 Y257 Y258 Y259 Y260 Y261 Y262 Y263 Y264 Y265 Y266 Y267 Y268 Y269 Y270 Y271 Y272 Y273 Y274 Y275 Y276 Y277 Y278 Y279 Y280 Y281 Y282 Y283 Y284 Y285 Y286 Y287 Y288 Y289 Y290 Y291 Y292 Y293 Y294 Y295 Y296 Y297 Y298 Y299 Y300 Y301 Y302 Y303 Y304 Y305 Y306 Y307 Y308 Y309 Y310 Y311 Y312 Y313 Y314 Y315 Y316 Y317 Y318 Y319 Y320 Y321 Y322 Y323 Y324 Y325 Y326 Y327 Y328 Y329 Y330 Y331 Y332 Y333 Y334 Y335 Y336 Y337 Y338 Y339 Y340 Y341 Y342 Y343 Y344 Y345 Y346 Y347 Y348 Y349 Y350 Y351 Y352 Y353 Y354 Y355 Y356 Y357 Y358 Y359 Y360 Y361 Y362 Y363 Y364 Y365 Y366 Y367 Y368 Y369 Y370 Y371 Y372 Y373 Y374 Y375 Y376 Y377 Y378 Y379 Y380 Y381 Y382 Y383 Y384 Y385 Y386 Y387 Y388 Y389 Y390 Y391 Y392 Y393 Y394 Y395 Y396 Y397 Y398 Y399 Y400 Y401 Y402 Y403 Y404 Y405 Y406 Y407 Y408 Y409 Y410 Y411 Y412 Y413 Y414 Y415 Y416 Y417 Y418 Y419 Y420 Y421 Y422 Y423 Y424 Y425 Y426 Y427 Y428 Y429 Y430 Y431 Y432 Y433 Y434 Y435 Y436 Y437 Y438 Y439 Y440 Y441 Y442 Y443 Y444 Y445 Y446 Y447 Y448 Y449 Y450 Y451 Y452 Y453 Y454 Y455 Y456 Y457 Y458 Y459 Y460 Y461 Y462 Y463 Y464 Y465 Y466 Y467 Y468 Y469 Y470 Y471 Y472 Y473 Y474 Y475 Y476 Y477 Y478 Y479 Y480 Y481 Y482 Y483 Y484 Y485 Y486 Y487 Y488 Y489 Y490 Y491 Y492 Y493 Y494 Y495 Y496 Y497 Y498 Y499 Y500 Y501 Y502 Y503 Y504 Y505 Y506 Y507 Y508 Y509 Y510 Y511 Y512 Y513 Y514 Y515 Y516 Y517 Y518 Y519 Y520 Y521 Y522 Y523 Y524 Y525 Y526 Y527 Y528 Y529 Y530 Y531 Y532 Y533 Y534 Y535 Y536 Y537 Y538 Y539 Y540 Y541 Y542 Y543 Y544 Y545 Y546 Y547 Y548 Y549 Y550 Y551 Y552 Y553 Y554 Y555 Y556 Y557 Y558 Y559 Y560 Y561 Y562 Y563 Y564 Y565 Y566 Y567 Y568 Y569 Y570 Y571 Y572 Y573 Y574 Y575 Y576 Y577 Y578 Y579 Y580 Y581 Y582 Y583 Y584 Y585 Y586 Y587 Y588 Y589 Y590 Y591 Y592 Y593 Y594 Y595 Y596 Y597 Y598 Y599 Y600 Y601 Y602 Y603 Y604 Y605 Y606 Y607 Y608 Y609 Y610 Y611 Y612 Y613 Y614 Y615 Y616 Y617 Y618 Y619 Y620 Y621 Y622 Y623 Y624 Y625 Y626 Y627 Y628 Y629 Y630 Y631 Y632 Y633 Y634 Y635 Y636 Y637 Y638 Y639 Y640 Y641 Y642 Y643 Y644 Y645 Y646 Y647 Y648 Y649 Y650 Y651 Y652 Y653 Y654 Y655 Y656 Y657 Y658 Y659 Y660 Y661 Y662 Y663 Y664 Y665 Y666 Y667 Y668 Y669 Y670 Y671 Y672 Y673 Y674 Y675 Y676 Y677 Y678 Y679 Y680 Y681 Y682 Y683 Y684 Y685 Y686 Y687 Y688 Y689 Y690 Y691 Y692 Y693 Y694 Y695 Y696 Y697 Y698 Y699 Y700 Y701 Y702 Y703 Y704 Y705 Y706 Y707 Y708 Y709 Y710 Y711 Y712 Y713 Y714 Y715 Y716 Y717 Y718 Y719 Y720 Y721 Y722 Y723 Y724 Y725 Y726 Y727 Y728 Y729 Y730 Y731 Y732 Y733 Y734 Y735 Y736 Y737 Y738 Y739 Y740 Y741 Y742 Y743 Y744 Y745 Y746 Y747 Y748 Y749 Y750 Y751 Y752 Y753 Y754 Y755 Y756 Y757 Y758 Y759 Y760 Y761 Y762 Y763 Y764 Y765 Y766 Y767 Y768 Y769 Y770 Y771 Y772 Y773 Y774 Y775 Y776 Y777 Y778 Y779 Y780 Y781 Y782 Y783 Y784 Y785 Y786 Y787 Y788 Y789 Y790 Y791 Y792 Y793 Y794 Y795 Y796 Y797 Y798 Y799 Y800 Y801 Y802 Y803 Y804 Y805 Y806 Y807 Y808 Y809 Y810 Y811 Y812 Y813 Y814 Y815 Y816 Y817 Y818 Y819 Y820 Y821 Y822 Y823 Y824 Y825 Y826 Y827 Y828 Y829 Y830 Y831 Y832 Y833 Y834 Y835 Y836 Y837 Y838 Y839 Y840 Y841 Y842 Y843 Y844 Y845 Y846 Y847 Y848 Y849 Y850 Y851 Y852 Y853 Y854 Y855 Y856 Y857 Y858 Y859 Y860 Y861 Y862 Y863 Y864 Y865 Y866 Y867 Y868 Y869 Y870 Y871 Y872 Y873 Y874 Y875 Y876 Y877 Y878 Y879 Y880 Y881 Y882 Y883 Y884 Y885 Y886 Y887 Y888 Y889 Y890 Y891 Y892 Y893 Y894 Y895 Y896 Y897 Y898 Y899 Y900 Y901 Y902 Y903 Y904 Y905 Y906 Y907 Y908 Y909 Y910 Y911 Y912 Y913 Y914 Y915 Y916 Y917 Y918 Y919 Y920 Y921 Y922 Y923 Y924 Y925 Y926 Y927 Y928 Y929 Y930 Y931 Y932 Y933 Y934 Y935 Y936 Y937 Y938 Y939 Y940 Y941 Y942 Y943 Y944 Y945 Y946 Y947 Y948 Y949 Y950 Y951 Y952 Y953 Y954 Y955 Y956 Y957 Y958 Y959 Y960 Y961 Y962 Y963 Y964 Y965 Y966 Y967 Y968 Y969 Y970 Y971 Y972 Y973 Y974 Y975 Y976 Y977 Y978 Y979 Y980 Y981 Y982 Y983 Y984 Y985 Y986 Y987 Y988 Y989 Y990 Y991 Y992 Y993 Y994 Y995 Y996 Y997 Y998 Y999 Y1000 Y1001 Y1002 Y1003 Y1004 Y1005 Y1006 Y1007 Y1008 Y1009 Y1010 Y1011 Y1012 Y1013 Y1014 Y1015 Y1016 Y1017 Y1018 Y1019 Y1020 Y1021 Y1022 Y1023 Y1024 Y1025 Y1026 Y1027 Y1028 Y1029 Y1030 Y1031 Y1032 Y1033 Y1034 Y1035 Y1036 Y1037 Y1038 Y1039 Y1040 Y1041 Y1042 Y1043 Y1044 Y1045 Y1046 Y1047 Y1048 Y1049 Y1050 Y1051 Y1052 Y1053 Y1054 Y1055 Y1056 Y1057 Y1058 Y1059 Y1060 Y1061 Y1062 Y1063 Y1064 Y1065 Y1066 Y1067 Y1068 Y1069 Y1070 Y1071 Y1072 Y1073 Y1074 Y1075 Y1076 Y1077 Y1078 Y1079 Y1080 Y1081 Y1082 Y1083 Y1084 Y1085 Y1086 Y1087 Y1088 Y1089 Y1090 Y1091 Y1092 Y1093 Y1094 Y1095 Y1096 Y1097 Y1098 Y1099 Y1100 Y1101 Y1102 Y1103 Y1104 Y1105 Y1106 Y1107 Y1108 Y1109 Y1110 Y1111 Y1112 Y1113 Y1114 Y1115 Y1116 Y1117 Y1118 Y1119 Y1120 Y1121 Y1122 Y1123 Y1124 Y1125 Y1126 Y1127 Y1128 Y1129 Y1130 Y1131 Y1132 Y1133 Y1134 Y1135 Y1136 Y1137 Y1138 Y1139 Y1140 Y1141 Y1142 Y1143 Y1144 Y1145 Y1146 Y1147 Y1148 Y1149 Y1150 Y1151 Y1152 Y1153 Y1154 Y1155 Y1156 Y1157 Y1158 Y1159 Y1160 Y1161 Y1162 Y1163 Y1164 Y1165 Y1166 Y1167 Y1168 Y1169 Y1170 Y1171 Y1172 Y1173 Y1174 Y1175 Y1176 Y1177 Y1178 Y1179 Y1180 Y1181 Y1182 Y1183 Y1184 Y1185 Y1186 Y1187 Y1188 Y1189 Y1190 Y1191 Y1192 Y1193 Y1194 Y1195 Y1196 Y1197 Y1198 Y1199 Y1200 Y1201 Y1202 Y1203 Y1204 Y1205 Y1206 Y1207 Y1208 Y1209 Y1210 Y1211 Y1212 Y1213 Y1214 Y1215 Y1216 Y1217 Y1218 Y1219 Y1220 Y1221 Y1222 Y1223 Y1224 Y1225 Y1226 Y1227 Y1228 Y1229 Y1230 Y1231 Y1232 Y1233 Y1234 Y1235 Y1236 Y1237 Y1238 Y1239 Y1240 Y1241 Y1242 Y1243 Y1244 Y1245 Y1246 Y1247 Y1248 Y1249 Y1250 Y1251 Y1252 Y1253 Y1254 Y1255 Y1256 Y1257 Y1258 Y1259 Y1260 Y1261 Y1262 Y1263 Y1264 Y1265 Y1266 Y1267 Y1268 Y1269 Y1270 Y1271 Y1272 Y1273 Y1274 Y1275 Y1276 Y1277 Y1278 Y1279 Y1280 Y1281 Y1282 Y1283 Y1284 Y1285 Y1286 Y1287 Y1288 Y1289 Y1290 Y1291 Y1292 Y1293 Y1294 Y1295 Y1296 Y1297 Y1298 Y1299 Y1300 Y1301 Y1302 Y1303 Y1304 Y1305 Y1306 Y1307 Y1308 Y1309 Y1310 Y1311 Y1312 Y1313 Y1314 Y1315 Y1316 Y1317 Y1318 Y1319 Y1320 Y1321 Y1322 Y1323 Y1324 Y1325 Y1326 Y1327 Y1328 Y1329 Y1330 Y1331 Y1332 Y1333 Y1334 Y1335 Y1336 Y1337 Y1338 Y1339 Y1340 Y1341 Y1342 Y1343 Y1344 Y1345 Y1346 Y1347 Y1348 Y1349 Y1350 Y1351 Y1352 Y1353 Y1354 Y1355 Y1356 Y1357 Y1358 Y1359 Y1360 Y1361 Y1362 Y1363 Y1364 Y1365 Y1366 Y1367 Y1368 Y1369 Y1370 Y1371 Y1372 Y1373 Y1374 Y1375 Y1376 Y1377 Y1378 Y1379 Y1380 Y1381 Y1382 Y1383 Y1384 Y1385 Y1386 Y1387 Y1388 Y1389 Y1390 Y1391 Y1392 Y1393 Y1394 Y1395 Y1396 Y1397 Y1398 Y1399 Y1400 Y1401 Y1402 Y1403 Y1404 Y1405 Y1406 Y1407 Y1408 Y1409 Y1410 Y1411 Y1412 Y1413 Y1414 Y1415 Y1416 Y1417 Y1418 Y1419 Y1420 Y1421 Y1422 Y1423 Y1424 Y1425 Y1426 Y1427 Y1428 Y1429 Y1430 Y1431 Y1432 Y1433 Y1434 Y1435 Y1436 Y1437 Y1438 Y1439 Y1440 Y1441 Y1442 Y1443 Y1444 Y1445 Y1446 Y1447 Y1448 Y1449 Y1450 Y1451 Y1452 Y1453 Y1454 Y1455 Y1456 Y1457 Y1458 Y1459 Y1460 Y1461 Y1462 Y1463 Y1464 Y1465 Y1466 Y1467 Y1468 Y1469 Y1470 Y1471 Y1472 Y1473 Y1474 Y1475 Y1476 Y1477 Y1478 Y1479 Y1480 Y1481 Y1482 Y1483 Y1484 Y1485 Y1486 Y1487 Y1488 Y1489 Y1490 Y1491 Y1492 Y1493 Y1494 Y1495 Y1496 Y1497 Y1498 Y1499 Y1500 Y1501 Y1502 Y1503 Y1504 Y1505 Y1506 Y1507 Y1508 Y1509 Y1510 Y1511 Y1512 Y1513 Y1514 Y1515 Y1516 Y1517 Y1518 Y1519 Y1520 Y1521 Y1522 Y1523 Y1524 Y1525 Y1526 Y1527 Y1528 Y1529 Y1530 Y1531 Y1532 Y1533 Y1534 Y1535 Y1536 Y1537 Y1538 Y1539 Y1540 Y1541 Y1542 Y1543 Y1544 Y1545 Y1546 Y1547 Y1548 Y1549 Y1550 Y1551 Y1552 Y1553 Y1554 Y1555 Y1556 Y1557 Y1558 Y1559 Y1560 Y1561 Y1562 Y1563 Y1564 Y1565 Y1566 Y1567 Y1568 Y1569 Y1570 Y1571 Y1572 Y1573 Y1574 Y1575 Y1576 Y1577 Y1578 Y1579 Y1580 Y1581 Y1582 Y1583 Y1584 Y1585 Y1586 Y1587 Y1588 Y1589 Y1590 Y1591 Y1592 Y1593 Y1594 Y1595 Y1596 Y1597 Y1598 Y1599 Y1600 Y1601 Y1602 Y1603 Y1604 Y1605 Y1606 Y1607 Y1608 Y1609 Y1610 Y1611 Y1612 Y1613 Y1614 Y1615 Y1616 Y1617 Y1618 Y1619 Y1620 Y1621 Y1622 Y1623 Y1624 Y1625 Y1626 Y1627 Y1628 Y1629 Y1630 Y1631 Y1632 Y1633 Y1634 Y1635 Y1636 Y1637 Y1638 Y1639 Y1640 Y1641 Y1642 Y1643 Y1644 Y1645 Y1646 Y1647 Y1648 Y1649 Y1650 Y1651 Y1652 Y1653 Y1654 Y1655 Y1656 Y1657 Y1658 Y1659 Y1660 Y1661 Y1662 Y1663 Y1664 Y1665 Y1666 Y1667 Y1668 Y1669 Y1670 Y1671 Y1672 Y1673 Y1674 Y1675 Y1676 Y1677 Y1678 Y1679 Y1680 Y1681 Y1682 Y1683 Y1684 Y1685 Y1686 Y1687 Y1688 Y1689 Y1690 Y1691 Y1692 Y1693 Y1694 Y1695 Y1696 Y1697 Y1698 Y1699 Y1700 Y1701 Y1702 Y1703 Y1704 Y1705 Y1706 Y1707 Y1708 Y1709 Y1710 Y1711 Y1712 Y1713 Y1714 Y1715 Y1716 Y1717 Y1718 Y1719 Y1720 Y1721 Y1722 Y1723 Y1724 Y1725 Y1726 Y1727 Y1728 Y1729 Y1730 Y1731 Y1732 Y1733 Y1734 Y1735 Y1736 Y1737 Y1738 Y1739 Y1740 Y1741 Y1742 Y1743 Y1744 Y1745 Y1746 Y1747 Y1748 Y1749 Y1750 Y1751 Y1752 Y1753 Y1754 Y1755 Y1756 Y1757 Y1758 Y1759 Y1760 Y1761 Y1762 Y1763 Y1764 Y1765 Y1766 Y1767 Y1768 Y1769 Y1770 Y1771 Y1772 Y1773 Y1774 Y1775 Y1776 Y1777 Y1778 Y1779 Y1780 Y1781 Y1782 Y1783 Y1784 Y1785 Y1786 Y1787 Y1788 Y1789 Y1790 Y1791 Y1792 Y1793 Y1794 Y1795 Y1796 Y1797 Y1798 Y1799 Y1800 Y1801 Y1802 Y1803 Y1804 Y1805 Y1806 Y1807 Y1808 Y1809 Y1810 Y1811 Y1812 Y1813 Y1814 Y1815 Y1816 Y1817 Y1818 Y1819 Y1820 Y1821 Y1822 Y1823 Y1824 Y1825 Y1826 Y1827 Y1828 Y1829 Y1830 Y1831 Y1832 Y1833 Y1834 Y1835 Y1836 Y1837 Y1838 Y1839 Y1840 Y1841 Y1842 Y1843 Y1844 Y1845 Y1846 Y1847 Y1848 Y1849 Y1850 Y1851 Y1852 Y1853 Y1854 Y1855 Y1856 Y1857 Y1858 Y1859 Y1860 Y1861 Y1862 Y1863 Y1864 Y1865 Y1866 Y1867 Y1868 Y1869 Y1870 Y1871 Y1872 Y1873 Y1874 Y1875 Y1876 Y1877 Y1878 Y1879 Y1880 Y1881 Y1882 Y1883 Y1884 Y1885 Y1886 Y1887 Y1888 Y1889 Y1890 Y1891 Y1892 Y1893 Y1894 Y1895 Y1896 Y1897 Y1898 Y1899 Y1900 Y1901 Y1902 Y1903 Y1904 Y1905 Y1906 Y1907 Y1908 Y1909 Y1910 Y1911 Y1912 Y1913 Y1914 Y1915 Y1916 Y1917 Y1918 Y1919 Y1920 Y1921 Y1922 Y1923 Y1924 Y1925 Y1926 Y1927 Y1928 Y1929 Y1930 Y1931 Y1932 Y1933 Y1934 Y1935 Y1936 Y1937 Y1938 Y1939 Y1940 Y1941 Y1942 Y1943 Y1944 Y1945 Y1946 Y1947 Y1948 Y1949 Y1950 Y1951 Y1952 Y1953 Y1954 Y1955 Y1956 Y1957 Y1958 Y1959 Y1960 Y1961 Y1962 Y1963 Y1964 Y1965 Y1966 Y1967 Y1968 Y1969 Y1970 Y1971 Y1972 Y1973 Y1974 Y1975 Y1976 Y1977 Y1978 Y1979 Y1980 Y1981 Y1982 Y1983 Y1984 Y1985 Y1986 Y1987 Y1988 Y1989 Y1990 Y1991 Y1992 Y1993 Y1994 Y1995 Y1996 Y1997 Y1998 Y1999 Y2000 Y2001 Y2002 Y2003 Y2004 Y2005 Y2006 Y2007 Y2008 Y2009 Y2010 Y2011 Y2012 Y2013 Y2014 Y2015 Y2016 Y2017 Y2018 Y2019 Y2020 Y2021 Y2022 Y2023 Y2024 Y2025 Y2026 Y2027 Y2028 Y2029 Y2030 Y2031 Y2032 Y2033 Y2034 Y2035 Y2036 Y2037 Y2038 Y2039 Y2040 Y2041 Y2042 Y2043 Y2044 Y2045 Y2046 Y2047 Y2048 Y2049 Y2050 Y2051 Y2052 Y2053 Y2054 Y2055 Y2056 Y2057 Y2058 Y2059 Y2060 Y2061 Y2062 Y2063 Y2064 Y2065 Y2066 Y2067 Y2068 Y2069 Y2070 Y2071 Y2072 Y2073 Y2074 Y2075 Y2076 Y2077 Y2078 Y2079 Y2080 Y2081 Y2082 Y2083 Y2084 Y2085 Y2086 Y2087 Y2088 Y2089 Y2090 Y2091 Y2092 Y2093 Y2094 Y2095 Y2096 Y2097 Y2098 Y2099 Y2100 Y2101 Y2102 Y2103 Y2104 Y2105 Y2106 Y2107 Y2108 Y2109 Y2110 Y2111 Y2112 Y2113 Y2114 Y2115 Y2116 Y2117 Y2118 Y2119 Y2120 Y2121 Y2122 Y2123 Y2124 Y2125 Y2126 Y2127 Y2128 Y2129 Y2130 Y2131 Y2132 Y2133 Y2134 Y2135 Y2136 Y2137 Y2138 Y2139 Y2140 Y2141 Y2142 Y2143 Y2144 Y2145 Y2146 Y2147 Y2148 Y2149 Y2150 Y2151 Y2152 Y2153 Y2154 Y2155 Y2156 Y2157 Y2158 Y2159 Y2160 Y2161 Y2162 Y2163 Y2164 Y2165 Y2166 Y2167 Y2168 Y2169 Y2170 Y2171 Y2172 Y2173 Y2174 Y2175 Y2176 Y2177 Y2178 Y2179 Y2180 Y2181 Y2182 Y2183 Y2184 Y2185 Y2186 Y2187 Y2188 Y2189 Y2190 Y2191 Y2192 Y2193 Y2194 Y2195 Y2196 Y2197 Y2198 Y2199 Y2200 Y2201 Y2202 Y2203 Y2204 Y2205 Y2206 Y2207 Y2208 Y2209 Y2210 Y2211 Y2212 Y2213 Y2214 Y2215 Y2216 Y2217 Y2218 Y2219 Y2220 Y2221 Y2222 Y2223 Y2224 Y2225 Y2226 Y2227 Y2228 Y2229 Y2230 Y2231 Y2232 Y2233 Y2234 Y2235 Y2236 Y2237 Y2238 Y2239 Y2240 Y2241 Y2242 Y2243 Y2244 Y2245 Y2246 Y2247 Y2248 Y2249 Y2250 Y2251 Y2252 Y2253 Y2254 Y2255 Y2256 Y2257 Y2258 Y2259 Y2260 Y2261 Y2262 Y2263 Y2264 Y2265 Y2266 Y2267 Y2268 Y2269 Y2270 Y2271 Y2272 Y2273 Y2274 Y2275 Y2276 Y2277 Y2278 Y2279 Y2280 Y2281 Y2282 Y2283 Y2284 Y2285 Y2286 Y2287 Y2288 Y2289 Y2290 Y2291 Y2292 Y2293 Y2294 Y2295 Y2296 Y2297 Y2298 Y2299 Y2300 Y2301 Y2302 Y2303 Y2304 Y2305 Y2306 Y2307 Y2308 Y2309 Y2310 Y2311 Y2312 Y2313 Y2314 Y2315 Y2316 Y2317 Y2318 Y2319 Y2320 Y2321 Y2322 Y2323 Y2324 Y2325 Y2326 Y2327 Y2328 Y2329 Y2330 Y2331 Y2332 Y2333 Y2334 Y2335 Y2336 Y2337 Y2338 Y2339 Y2340 Y2341 Y2342 Y2343 Y2344 Y2345 Y2346 Y2347 Y2348 Y2349 Y2350 Y2351 Y2352 Y2353 Y2354 Y2355 Y2356 Y2357 Y2358 Y2359 Y2360 Y2361 Y2362 Y2363 Y2364 Y2365 Y2366 Y2367 Y2368 Y2369 Y2370 Y2371 Y2372 Y2373 Y2374 Y2375 Y2376 Y2377 Y2378 Y2379 Y2380 Y2381 Y2382 Y2383 Y2384 Y2385 Y2386 Y2387 Y2388 Y2389 Y2390 Y2391 Y2392 Y2393 Y2394 Y2395 Y2396 Y2397 Y2398 Y2399 Y2400 Y2401 Y2402 Y2403 Y2404 Y2405 Y2406 Y2407 Y2408 Y2409 Y2410 Y2411 Y2412 Y2413 Y2414 Y2415 Y2416 Y2417 Y2418 Y2419 Y2420 Y2421 Y2422 Y2423 Y2424 Y2425 Y2426 Y2427 Y2428 Y2429 Y2430 Y2431 Y2432 Y2433 Y2434 Y2435 Y2436 Y2437 Y2438 Y2439 Y2440 Y2441 Y2442 Y2443 Y2444 Y2445 Y2446 Y2447 Y2448 Y2449 Y2450 Y2451 Y2452 Y2453 Y2454 Y2455 Y2456 Y2457 Y2458 Y2459 Y2460 Y2461 Y2462 Y2463 Y2464 Y2465 Y2466 Y2467 Y2468 Y2469 Y2470 Y2471 Y2472 Y2473 Y2474 Y2475 Y2476 Y2477 Y2478 Y2479 Y2480 Y2481 Y2482 Y2483 Y2484 Y2485 Y2486 Y2487 Y2488 Y2489 Y2490 Y2491 Y2492 Y2493 Y2494 Y2495 Y2496 Y2497 Y2498 Y2499 Y2500 Y2501 Y2502 Y2503 Y2504 Y2505 Y2506 Y2507 Y2508 Y2509 Y2510 Y2511 Y2512 Y2513 Y2514 Y2515 Y2516 Y2517 Y2518 Y2519 Y2520 Y2521 Y2522 Y2523 Y2524 Y2525 Y2526 Y2527 Y2528 Y2529 Y2530 Y2531 Y2532 Y2533 Y2534 Y2535 Y2536 Y2537 Y2538 Y2539 Y2540 Y2541 Y2542 Y2543 Y2544 Y2545 Y2546 Y2547 Y2548 Y2549 Y2550 Y2551 Y2552 Y2553 Y2554 Y2555 Y2556 Y2557 Y2558 Y2559 Y2560 Y2561 Y2562 Y2563 Y2564 Y2565 Y2566 Y2567 Y2568 Y2569 Y2570 Y2571 Y2572 Y2573 Y2574 Y2575 Y2576 Y2577 Y2578 Y2579 Y2580 Y2581 Y2582 Y2583 Y2584 Y2585 Y2586 Y2587 Y2588 Y2589 Y2590 Y2591 Y2592 Y2593 Y2594 Y2595 Y2596 Y2597 Y2598 Y2599 Y2600 Y2601 Y2602 Y2603 Y2604 Y2605 Y2606 Y2607 Y2608 Y2609 Y2610 Y2611 Y2612 Y2613 Y2614 Y2615 Y2616 Y2617 Y2618 Y2619 Y2620 Y2621 Y2622 Y2623 Y2624 Y2625 Y2626 Y2627 Y2628 Y2629 Y2630 Y2631 Y2632 Y2633 Y2634 Y2635 Y2636 Y2637 Y2638 Y2639 Y2640 Y2641 Y2642 Y2643 Y2644 Y2645 Y2646 Y2647 Y2648 Y2649 Y2650 Y2651 Y2652 Y2653 Y2654 Y2655 Y2656 Y2657 Y2658 Y2659 Y2660 Y2661 Y2662 Y2663 Y2664 Y2665 Y2666 Y2667 Y2668 Y2669 Y2670 Y2671 Y2672 Y2673 Y2674 Y2675 Y2676 Y2677 Y2678 Y2679 Y2680 Y2681 Y2682 Y2683 Y2684 Y2685 Y2686 Y2687 Y2688 Y2689 Y2690 Y2691 Y2692 Y2693 Y2694 Y2695 Y2696 Y2697 Y2698 Y2699 Y2700 Y2701 Y2702 Y2703 Y2704 Y2705 Y2706 Y2707 Y2708 Y2709 Y2710 Y2711 Y2712 Y2713 Y2714 Y2715 Y2716 Y2717 Y2718 Y2719 Y2720 Y2721 Y2722 Y2723 Y2724 Y2725 Y2726 Y2727 Y2728 Y2729 Y2730 Y2731 Y2732 Y2733 Y2734 Y2735 Y2736 Y2737 Y2738 Y2739 Y2740 Y2741 Y2742 Y2743 Y2744 Y2745 Y2746 Y2747 Y2748 Y2749 Y2750 Y2751 Y2752 Y2753 Y2754 Y2755 Y2756 Y2757 Y2758 Y2759 Y2760 Y2761 Y2762 Y2763 Y2764 Y2765 Y2766 Y2767 Y2768 Y2769 Y2770 Y2771 Y2772 Y2773 Y2774 Y2775 Y2776 Y2777 Y2778 Y2779 Y2780 Y2781 Y2782 Y2783 Y2784 Y2785 Y2786 Y2787 Y2788 Y2789 Y2790 Y2791 Y2792 Y2793 Y2794 Y2795 Y2796 Y2797 Y2798 Y2799 Y2800 Y2801 Y2802 Y2803 Y2804 Y2805 Y2806 Y2807 Y2808 Y2809 Y2810 Y2811 Y2812 Y2813 Y2814 Y2815 Y2816 Y2817 Y2818 Y2819 Y2820 Y2821 Y2822 Y2823 Y2824 Y2825 Y2826 Y2827 Y2828 Y2829 Y2830 Y2831 Y2832 Y2833 Y2834 Y2835 Y2836 Y2837 Y2838 Y2839 Y2840 Y2841 Y2842 Y2843 Y2844 Y2845 Y2846 Y2847 Y2848 Y2849 Y2850 Y2851 Y2852 Y2853 Y2854 Y2855 Y2856 Y2857 Y2858 Y2859 Y2860 Y2861 Y2862 Y2863 Y2864 Y2865 Y2866 Y2867 Y2868 Y2869 Y2870 Y2871 Y2872 Y2873 Y2874 Y2875 Y2876 Y2877 Y2878 Y2879 Y2880 Y2881 Y2882 Y2883 Y2884 Y2885 Y2886 Y2887 Y2888 Y2889 Y2890 Y2891 Y2892 Y2893 Y2894 Y2895 Y2896 Y2897 Y2898 Y2899 Y2900 Y2901 Y2902 Y2903 Y2904 Y2905 Y2906 Y2907 Y2908 Y2909 Y2910 Y2911 Y2912 Y2913 Y2914 Y2915 Y2916 Y2917 Y2918 Y2919 Y2920 Y2921 Y2922 Y2923 Y2924 Y2925 Y2926 Y2927 Y2928 Y2929 Y2930 Y2931 Y2932 Y2933 Y2934 Y2935 Y2936 Y2937 Y2938 Y2939 Y2940 Y2941 Y2942 Y2943 Y2944 Y2945 Y2946 Y2947 Y2948 Y2949 Y2950 Y2951 Y2952 Y2953 Y2954 Y2955 Y2956 Y2957 Y2958 Y2959 Y2960 Y2961 Y2962 Y2963 Y2964 Y2965 Y2966 Y2967 Y2968 Y2969 Y2970 Y2971 Y2972 Y2973 Y2974 Y2975 Y2976 Y2977 Y2978 Y2979 Y2980 Y2981 Y2982 Y2983 Y2984 Y2985 Y2986 Y2987 Y2988 Y2989 Y2990 Y2991 Y2992 Y2993 Y2994 Y2995 Y2996 Y2997 Y2998 Y2999 ;
param A := 
;
param B := 

;
end;
